
Gurobi 13.0.2 (win64) logging started Thu Jul 23 04:57:31 2026

Set parameter LogFile to value "E:\codes\ExactEBRP\results\gf_cplex_equivalent_gurobi_replica_round28\runs\stage1__moderate_seed4301__c3_replica__300s\external\native_logs\R.0.0.1.1.1.0.1.0_terminal_mip.gurobi.log"
Gurobi Optimizer version 13.0.2 build v13.0.2rc1 (win64 - Windows 10.0 (19045.2))

CPU model: 12th Gen Intel(R) Core(TM) i7-12700KF, instruction set [SSE2|AVX|AVX2]
Thread count: 12 physical cores, 20 logical processors, using up to 1 threads

Non-default parameters:
TimeLimit  1.2629106059999998e+02
MIPGap  0
MIPGapAbs  0
LogToConsole  0
Threads  1

Optimize a model with 11911 rows, 3376 columns and 67353 nonzeros (Min)
Model fingerprint: 0x03dab4f7
Model has 21 linear objective coefficients
Variable types: 1685 continuous, 1691 integer (1491 binary)
Coefficient statistics:
  Matrix range     [4e-03, 2e+04]
  Objective range  [8e-03, 1e+00]
  Bounds range     [4e-03, 5e+01]
  RHS range        [4e-03, 5e+04]

Presolve removed 4346 rows and 447 columns
Presolve time: 0.35s
Presolved: 7565 rows, 2929 columns, 52128 nonzeros
Variable types: 1475 continuous, 1454 integer (1319 binary)

Root relaxation: objective 6.306269e-03, 1797 iterations, 0.07 seconds (0.16 work units)

    Nodes    |    Current Node    |     Objective Bounds      |     Work
 Expl Unexpl |  Obj  Depth IntInf | Incumbent    BestBd   Gap | It/Node Time

     0     0    0.00631    0  161          -    0.00631      -     -    0s
     0     0    0.00631    0  155          -    0.00631      -     -    0s
     0     0    0.00639    0  220          -    0.00639      -     -    0s
     0     0    0.00639    0  230          -    0.00639      -     -    1s
     0     0    0.00642    0  270          -    0.00642      -     -    1s
     0     0    0.00643    0  239          -    0.00643      -     -    1s
     0     0    0.00643    0  253          -    0.00643      -     -    1s
     0     0    0.00643    0  240          -    0.00643      -     -    2s
     0     0    0.00643    0  238          -    0.00643      -     -    2s
     0     0    0.00643    0  227          -    0.00643      -     -    2s
     0     0    0.00643    0  235          -    0.00643      -     -    2s
     0     0    0.00643    0  193          -    0.00643      -     -    3s
     0     0    0.00643    0  226          -    0.00643      -     -    3s
     0     0    0.00643    0  233          -    0.00643      -     -    3s
     0     0    0.00643    0  208          -    0.00643      -     -    4s
     0     0    0.00643    0  203          -    0.00643      -     -    4s
     0     0    0.00643    0  241          -    0.00643      -     -    4s
     0     0    0.00643    0  212          -    0.00643      -     -    5s
     0     0    0.00643    0  212          -    0.00643      -     -    5s
     0     0    0.00643    0  175          -    0.00643      -     -    5s
     0     2    0.00643    0  160          -    0.00643      -     -    6s
    63    25    0.00643    7  181          -    0.00643      -   605   10s
   179    51    0.00645    4  159          -    0.00643      -   456   15s
   319    57    0.00685   10  158          -    0.00645      -   455   20s
   445    51    0.00686    7  143          -    0.00684      -   448   25s

Cutting planes:
  Learned: 12
  Cover: 64
  Implied bound: 223
  Clique: 14
  MIR: 199
  StrongCG: 4
  Flow cover: 34
  GUB cover: 1
  Network: 9
  RLT: 5
  Relax-and-lift: 69
  BQP: 7

Explored 509 nodes (246434 simplex iterations) in 26.00 seconds (54.83 work units)
Thread count was 1 (of 20 available processors)

Solution count 0

Model is infeasible
Best objective -, best bound -, gap -

User-callback calls 6541, time in user-callback 0.00 sec
